NAME: random_points
TYPE: TSP
DIMENSION: 50
EDGE_WEIGHT_TYPE: EUC_2D
NODE_COORD_SECTION
1 631 70
2 735 404
3 376 774
4 256 40
5 911 818
6 798 670
7 815 864
8 397 463
9 168 435
10 426 321
11 439 312
12 576 549
13 518 478
14 860 266
15 474 155
16 557 642
17 708 969
18 444 133
19 38 176
20 469 833
21 662 947
22 347 954
23 203 605
24 96 570
25 279 826
26 532 724
27 689 516
28 883 636
29 449 504
30 851 250
31 893 97
32 928 771
33 686 340
34 111 793
35 551 992
36 820 22
37 877 306
38 362 870
39 954 850
40 742 787
41 434 92
42 619 626
43 115 172
44 123 341
45 90 51
46 65 833
47 234 230
48 201 749
49 360 634
50 535 849
EOF
